
  32    4
  10   10   10   10

   0   0   0   0   0  12 2 3 4 5 6 8 13 14 15 16 30 31 
   6   1   1   0   1   8 27 26 25 24 21 20 17 7 
   5   3   0   1   4   9 27 26 25 24 23 21 19 18 9 
   2   4   3   4   0   9 29 28 26 25 24 22 19 17 9 
  10   0   2   5   6   7 23 22 21 18 12 10 9 
   1   4   0   6   7   4 21 19 17 11 
   1   4   6   0   9   4 23 22 19 18 
   8   3   5   6   0   4 23 22 21 17 
   3   4   3   0   3   1 20 
   2   4   0   2   6   1 19 
   8   3   8   0   4   1 18 
   1   6   0   4   2   1 17 
  10   0   8   2   3   1 20 
   3   7   3   0   5   1 18 
   3   4   3   2   0   1 17 
   5   5   0   1   6   1 17 
   9   6   3   0   3   1 32
   9   3   1   0   4   1 32
   2   4   4   5   0   1 32
   2   2   0   8   3   1 32
   3   0   2   3   2   1 32
  10   5   4   0   3   1 32
  10   0   4   4   3   1 32
   4   0   2   8   2   1 32
   3   4   0   4   3   1 32
   9   3   0   3   4   1 32
   2   5   7   1   0   1 32
   7   5   8   3   0   1 32
   9   2   1   6   0   1 32
   9   5   5   7   0   1 32
   8   0   5   3   5   1 32
   0   0   0   0   0   0 
